\ Model IntegerProblem
\ LP format - for model browsing. Use MPS format to capture full model detail.
Minimize
  0 C0 + 0 C1 + 0 C2 + 0 C3 + 0 C4 + 0 C5 + 0 C6 + 0 C7 + 0 C8
Subject To
Bounds
Binaries
 C0 C1 C2 C3 C4 C5 C6 C7 C8
End
